s td 32 14 45
b 1 24 26 43
b 2 17 27 38
b 3 19 30 32 44
b 4 1 4 6 7 10 18 20 21 25 30 33 35 36 44
b 5 4 6 7 10 18 20 21 25 27 30 33 35 36 44
b 6 4 6 7 10 18 21 25 27 30 33 35 36 44 45
b 7 4 6 10 18 21 25 27 30 32 33 35 36 44 45
b 8 4 5 6 10 18 21 25 27 30 32 33 36 44 45
b 9 2 4 5 6 10 18 21 27 30 32 33 36 44 45
b 10 2 4 5 10 18 21 27 30 32 33 34 36 44 45
b 11 2 4 5 10 18 21 22 27 30 34 36 44
b 12 2 4 9 10 18 22 27 30 36 44
b 13 2 4 9 10 22 27 36 40 44
b 14 9 10 22 36 40 42 44
b 15 2 4 5 10 17 21 27 30 32 33 34 36 44 45
b 16 5 10 16 17 21 30 32 33 36
b 17 12 16 21 32 36
b 18 4 13 17 34 45
b 19 5 10 18 25 27 41
b 20 15 18 25 27 41
b 21 18 32 35 36 39 45
b 22 7 20 25 26 27 33 35 36 44
b 23 26 28 33 35 44
b 24 20 26 36 43
b 25 1 4 6 7 10 18 20 21 23 30 33 35 36 44
b 26 1 3 10 18 20 23 30 44
b 27 1 3 10 20 23 31
b 28 1 4 6 7 14 20 21 23 30 33 35 44
b 29 1 4 6 7 14 21 30 33 35 37 44
b 30 1 6 7 21 29 30 33 35 37 44
b 31 6 11 29 30 33
b 32 6 8 11 29
1 24
2 15
3 7
4 5
4 25
5 6
5 22
6 7
7 8
7 21
8 9
8 19
9 10
10 11
10 15
11 12
12 13
13 14
15 16
15 18
16 17
19 20
22 23
22 24
25 26
25 28
26 27
28 29
29 30
30 31
31 32
